NAME: ACTUAL_TOURS/amz0496
TYPE: TOUR
COMMENT: RouteID_34af9bc8-0104-4955-aedb-9442c7155a49
DIMENSION: 148
TOUR_SECTION
32
110
34
27
19
52
131
103
147
122
57
92
108
95
29
143
113
59
25
36
45
134
21
50
48
61
81
136
93
9
85
67
53
17
6
14
94
96
63
73
22
47
64
101
33
105
28
72
125
7
65
24
70
121
98
13
8
40
114
104
31
119
78
77
38
62
56
102
140
138
71
66
144
10
97
115
41
20
133
11
2
130
118
51
68
100
109
69
35
132
145
124
107
146
4
5
129
117
80
75
74
15
54
135
60
90
82
58
16
127
142
99
3
128
139
1
39
37
44
30
87
137
112
46
106
111
89
23
12
18
55
91
120
42
126
86
76
79
26
84
116
49
83
123
43
88
141
148
-1
EOF
